NAME : TW_40_seed_None_id_1
TYPE : CVRPTW
DIMENSION : 11
EDGE_WEIGHT_TYPE : EUC_2D
CAPACITY : 25
SERVICE_TIME : 100
LATE_COEFF : 0
NODE_COORD_SECTION
1	399	123
2	574	965
3	458	111
4	988	451
5	191	606
6	322	925
7	198	2
8	410	407
9	321	613
10	41	580
11	709	687
DEMAND_SECTION
1	0
2	2
3	10
4	1
5	6
6	5
7	10
8	3
9	6
10	10
11	9
TIME_WINDOW_SECTION
1	0	10000
2	2815	4824
3	7232	9270
4	2729	4713
5	5656	7652
6	8293	10000
7	4800	6776
8	1353	3367
9	4448	6480
10	6693	8678
11	957	2913
DEPOT_SECTION
1
-1
EOF
